true true true
presolving:
presolving (0 rounds: 0 fast, 0 medium, 0 exhaustive):
 0 deleted vars, 0 deleted constraints, 0 added constraints, 0 tightened bounds, 0 added holes, 0 changed sides, 0 changed coefficients
 0 implications, 0 cliques
presolved problem has 30 variables (30 bin, 0 int, 0 impl, 0 cont) and 24 constraints
     24 constraints of type <linear>
transformed objective value is always integral (scale: 1)
Presolving Time: 0.00

 time | node  | left  |LP iter|LP it/n|mem/heur|mdpt |vars |cons |rows |cuts |sepa|confs|strbr|  dualbound   | primalbound  |  gap   | compl. 
p 0.0s|     1 |     0 |     0 |     - |shiftand|   0 |  30 |  24 |  24 |   0 |  0 |   0 |   0 |      --      | 6.000000e+00 |    Inf | unknown
 time | node  | left  |LP iter|LP it/n|mem/heur|mdpt |vars |cons |rows |cuts |sepa|confs|strbr|  dualbound   | primalbound  |  gap   | compl. 
  0.0s|     1 |     0 |    15 |     - |  1375k |   0 | 284 |  24 |  24 |   0 |  0 |   0 |   0 |-3.900000e+01 | 6.000000e+00 |    Inf | unknown
 time | node  | left  |LP iter|LP it/n|mem/heur|mdpt |vars |cons |rows |cuts |sepa|confs|strbr|  dualbound   | primalbound  |  gap   | compl. 
  0.2s|     1 |     0 |   164 |     - |  3325k |   0 | 898 |  24 |  24 |   0 |  0 |   0 |   0 | 5.000000e+00 | 6.000000e+00 |  20.00%| unknown
 time | node  | left  |LP iter|LP it/n|mem/heur|mdpt |vars |cons |rows |cuts |sepa|confs|strbr|  dualbound   | primalbound  |  gap   | compl. 
  0.3s|     1 |     2 |   519 |     - |  3572k |   0 | 898 |  24 |  24 |   0 |  1 |   0 |   0 | 5.000000e+00 | 6.000000e+00 |  20.00%| unknown
 time | node  | left  |LP iter|LP it/n|mem/heur|mdpt |vars |cons |rows |cuts |sepa|confs|strbr|  dualbound   | primalbound  |  gap   | compl. 
  0.4s|     2 |     3 |   534 |  15.0 |  3647k |   1 | 903 |  24 |  24 |   0 |  1 |   0 |   0 | 5.000000e+00 | 6.000000e+00 |  20.00%| unknown
 time | node  | left  |LP iter|LP it/n|mem/heur|mdpt |vars |cons |rows |cuts |sepa|confs|strbr|  dualbound   | primalbound  |  gap   | compl. 
  0.7s|     3 |     4 |   547 |  14.0 |  3663k |   2 | 913 |  24 |  24 |   0 |  1 |   0 |   0 | 5.000000e+00 | 6.000000e+00 |  20.00%| unknown
 time | node  | left  |LP iter|LP it/n|mem/heur|mdpt |vars |cons |rows |cuts |sepa|confs|strbr|  dualbound   | primalbound  |  gap   | compl. 
  0.7s|     4 |     5 |   555 |  12.0 |  3737k |   3 | 913 |  24 |  24 |   0 |  1 |   0 |   0 | 5.000000e+00 | 6.000000e+00 |  20.00%| unknown
 time | node  | left  |LP iter|LP it/n|mem/heur|mdpt |vars |cons |rows |cuts |sepa|confs|strbr|  dualbound   | primalbound  |  gap   | compl. 
  0.9s|     5 |     6 |   569 |  12.5 |  3744k |   4 | 924 |  24 |  24 |   0 |  1 |   0 |   0 | 5.000000e+00 | 6.000000e+00 |  20.00%| unknown
 time | node  | left  |LP iter|LP it/n|mem/heur|mdpt |vars |cons |rows |cuts |sepa|confs|strbr|  dualbound   | primalbound  |  gap   | compl. 
  1.0s|     6 |     7 |   578 |  11.8 |  3749k |   5 | 927 |  24 |  24 |   0 |  1 |   0 |   0 | 5.000000e+00 | 6.000000e+00 |  20.00%| unknown
 time | node  | left  |LP iter|LP it/n|mem/heur|mdpt |vars |cons |rows |cuts |sepa|confs|strbr|  dualbound   | primalbound  |  gap   | compl. 
  1.1s|     7 |     8 |   597 |  13.0 |  3925k |   5 | 939 |  24 |  24 |   0 |  1 |   0 |   0 | 5.000000e+00 | 6.000000e+00 |  20.00%| unknown
 time | node  | left  |LP iter|LP it/n|mem/heur|mdpt |vars |cons |rows |cuts |sepa|confs|strbr|  dualbound   | primalbound  |  gap   | compl. 
  1.2s|     8 |     9 |   612 |  13.3 |  3958k |   6 | 948 |  24 |  24 |   0 |  1 |   0 |   0 | 5.000000e+00 | 6.000000e+00 |  20.00%| unknown
 time | node  | left  |LP iter|LP it/n|mem/heur|mdpt |vars |cons |rows |cuts |sepa|confs|strbr|  dualbound   | primalbound  |  gap   | compl. 
  1.4s|     9 |    10 |   686 |  20.9 |  4589k |   6 |1054 |  24 |  24 |   0 |  1 |   0 |   0 | 5.000000e+00 | 6.000000e+00 |  20.00%| unknown
 time | node  | left  |LP iter|LP it/n|mem/heur|mdpt |vars |cons |rows |cuts |sepa|confs|strbr|  dualbound   | primalbound  |  gap   | compl. 
  1.5s|    10 |    11 |   706 |  20.8 |  4654k |   7 |1092 |  24 |  24 |   0 |  1 |   0 |   0 | 5.000000e+00 | 6.000000e+00 |  20.00%| unknown
 time | node  | left  |LP iter|LP it/n|mem/heur|mdpt |vars |cons |rows |cuts |sepa|confs|strbr|  dualbound   | primalbound  |  gap   | compl. 
  1.5s|    11 |    12 |   713 |  19.4 |  4660k |   8 |1092 |  24 |  24 |   0 |  1 |   0 |   0 | 5.000000e+00 | 6.000000e+00 |  20.00%| unknown
 time | node  | left  |LP iter|LP it/n|mem/heur|mdpt |vars |cons |rows |cuts |sepa|confs|strbr|  dualbound   | primalbound  |  gap   | compl. 
  1.6s|    12 |    11 |   753 |  21.3 |  4953k |   8 |1093 |  24 |  24 |   0 |  0 |   0 |   0 | 5.000000e+00 | 6.000000e+00 |  20.00%| unknown
 time | node  | left  |LP iter|LP it/n|mem/heur|mdpt |vars |cons |rows |cuts |sepa|confs|strbr|  dualbound   | primalbound  |  gap   | compl. 
  1.7s|    13 |    12 |   784 |  22.1 |  4982k |   8 |1154 |  24 |  24 |   0 |  1 |   0 |   0 | 5.000000e+00 | 6.000000e+00 |  20.00%| unknown
 time | node  | left  |LP iter|LP it/n|mem/heur|mdpt |vars |cons |rows |cuts |sepa|confs|strbr|  dualbound   | primalbound  |  gap   | compl. 
  1.7s|    14 |    13 |   789 |  20.8 |  5257k |   8 |1154 |  24 |  24 |   0 |  1 |   0 |   0 | 5.000000e+00 | 6.000000e+00 |  20.00%| unknown
 time | node  | left  |LP iter|LP it/n|mem/heur|mdpt |vars |cons |rows |cuts |sepa|confs|strbr|  dualbound   | primalbound  |  gap   | compl. 
r 1.8s|    15 |     0 |   816 |  21.2 |simplero|   8 |1182 |  24 |  24 |   0 |  0 |   0 |   0 | 5.000000e+00 | 5.000000e+00 |   0.00%|  99.86%

SCIP Status        : problem is solved [optimal solution found]
Solving Time (sec) : 1.80
Solving Nodes      : 15
Primal Bound       : +5.00000000000000e+00 (2 solutions)
Dual Bound         : +5.00000000000000e+00
Gap                : 0.00 %
Running with parallel: True bidir: True symbreak: True
Number of Nodes:  24
45.78269675925926% holds
starting cheapest insertion heuristic
Heuristic without TSP improvement:  6
Heuristic without TSP improvement time:  0.1
Heuristic Sol:  6
Heuristic total time:  0.1
[[0, 20, 19, 2, 8, 10, 21, 9], [15, 13, 6, 14, 17, 3, 5], [7, 12, 1, 4], [16, 18, 11], [23], [22]]
Instance path:  /home/htc/mghannam/SCRATCH/lccp-rust/data/t62_gr24.npcc
Timelimit:  7200
Heuristic without TSP improvement:  6
Heuristic without TSP improvement time:  0.1
Heuristic Sol:  6
Heuristic total time:  0.1
at 1 zero_duals: 18
Switching to elementary pricing
at1, LP obj: 6.0 n_added_paths: 254
updated lowerbound from -1e+20 to -39
at 1 zero_duals: 18
at1, LP obj: 6.0 n_added_paths: 46
at 1 zero_duals: 9
at1, LP obj: 6.0 n_added_paths: 253
at 1 zero_duals: 6
Switching to elementary pricing
at1, LP obj: 4.7894736842105265 n_added_paths: 203
Switching to elementary pricing
at1, LP obj: 4.6 n_added_paths: 83
updated lowerbound from 1.0 to 3
at 1 zero_duals: 9
Switching to elementary pricing
at1, LP obj: 4.45 n_added_paths: 26
at 1 zero_duals: 10
Switching to elementary pricing
at1, LP obj: 4.428571428571429 n_added_paths: 3
updated lowerbound from 3.0 to 5
at 1 zero_duals: 11
Switching to elementary pricing
at1, LP obj: 4.428571428571429 n_added_paths: 0
at 2 zero_duals: 4
Switching to elementary pricing
at2, LP obj: 4.4375 n_added_paths: 5
at 2 zero_duals: 10
Switching to elementary pricing
at2, LP obj: 4.428571428571429 n_added_paths: 0
at 4 zero_duals: 4
Switching to elementary pricing
at4, LP obj: 4.4375 n_added_paths: 1
at 4 zero_duals: 3
Switching to elementary pricing
at4, LP obj: 4.431372549019608 n_added_paths: 9
at 4 zero_duals: 3
Switching to elementary pricing
at4, LP obj: 4.428571428571428 n_added_paths: 0
at 6 zero_duals: 5
Switching to elementary pricing
at6, LP obj: 4.4375 n_added_paths: 0
at 8 zero_duals: 5
Switching to elementary pricing
at8, LP obj: 4.461538461538462 n_added_paths: 10
at 8 zero_duals: 6
Switching to elementary pricing
at8, LP obj: 4.454545454545455 n_added_paths: 1
at 8 zero_duals: 8
Switching to elementary pricing
at8, LP obj: 4.454545454545455 n_added_paths: 0
at 10 zero_duals: 6
Switching to elementary pricing
at10, LP obj: 4.5 n_added_paths: 1
at 10 zero_duals: 3
Switching to elementary pricing
at10, LP obj: 4.5 n_added_paths: 2
at 10 zero_duals: 4
Switching to elementary pricing
at10, LP obj: 4.5 n_added_paths: 0
at 11 zero_duals: 8
Switching to elementary pricing
at11, LP obj: 4.5 n_added_paths: 8
at 11 zero_duals: 6
Switching to elementary pricing
at11, LP obj: 4.461538461538462 n_added_paths: 4
at 11 zero_duals: 5
Switching to elementary pricing
at11, LP obj: 4.461538461538462 n_added_paths: 0
at 14 zero_duals: 4
Switching to elementary pricing
at14, LP obj: 4.491228070175438 n_added_paths: 9
at 14 zero_duals: 4
Switching to elementary pricing
at14, LP obj: 4.48 n_added_paths: 0
at 15 zero_duals: 15
Switching to elementary pricing
at15, LP obj: 4.666666666666667 n_added_paths: 76
at 15 zero_duals: 11
Switching to elementary pricing
at15, LP obj: 4.5 n_added_paths: 8
at 15 zero_duals: 6
Switching to elementary pricing
at15, LP obj: 4.5 n_added_paths: 21
at 15 zero_duals: 4
Switching to elementary pricing
at15, LP obj: 4.5 n_added_paths: 1
at 15 zero_duals: 7
Switching to elementary pricing
at15, LP obj: 4.5 n_added_paths: 0
at 18 zero_duals: 3
Switching to elementary pricing
at18, LP obj: 4.555555555555555 n_added_paths: 38
at 18 zero_duals: 5
Switching to elementary pricing
at18, LP obj: 4.533333333333333 n_added_paths: 0
at 20 zero_duals: 5
Switching to elementary pricing
at20, LP obj: 4.533333333333333 n_added_paths: 0
at 21 zero_duals: 23
Switching to elementary pricing
at21, LP obj: 1e+20 n_added_paths: 1
updated lowerbound from 5.0 to 100000000000000000000
at 21 zero_duals: 12
Switching to elementary pricing
at21, LP obj: 5.333333333333333 n_added_paths: 0
updated lowerbound from 5.0 to 6
at 19 zero_duals: 10
Switching to elementary pricing
at19, LP obj: 4.666666666666666 n_added_paths: 24
at 19 zero_duals: 6
Switching to elementary pricing
at19, LP obj: 4.666666666666667 n_added_paths: 32
at 19 zero_duals: 10
Switching to elementary pricing
at19, LP obj: 4.666666666666666 n_added_paths: 5
at 19 zero_duals: 9
Switching to elementary pricing
at19, LP obj: 4.666666666666667 n_added_paths: 0
at 24 zero_duals: 9
Switching to elementary pricing
at24, LP obj: 4.666666666666667 n_added_paths: 0
at 25 zero_duals: 22
Switching to elementary pricing
at25, LP obj: 1e+20 n_added_paths: 28
updated lowerbound from 5.0 to 100000000000000000000
at 25 zero_duals: 19
Switching to elementary pricing
at25, LP obj: 5.0 n_added_paths: 1
Best solution found:
[23, 21, 9, 23] 1.0 1.0
checking cycle [23, 21, 9, 23]
[23, 21, 9, 23] 216 213
[22, 1, 4, 12, 22] 1.0 1.0
checking cycle [22, 1, 4, 12, 22]
[22, 1, 4, 12, 22] 335 293
[17, 8, 3, 6, 7, 14, 17] 1.0 1.0
checking cycle [17, 8, 3, 6, 7, 14, 17]
[17, 8, 3, 6, 7, 14, 17] 419 409
[20, 0, 11, 16, 19, 2, 10, 20] 1.0 1.0
checking cycle [20, 0, 11, 16, 19, 2, 10, 20]
[20, 0, 11, 16, 19, 2, 10, 20] 357 351
[18, 13, 5, 15, 18] 1.0 1.0
checking cycle [18, 13, 5, 15, 18]
[18, 13, 5, 15, 18] 404 322
